1,25734,33555,23616,46997,47465,12046,32286,5192,33815,30519,36184,466,32293,8718,12788,49537,31807,28791,44555,4838,44917,18232,41785,44711,2100,36508,11067,15591,28871,23863,41783,38670,44278,46449,1570,42208,37509,45448,28354,37877,11517,44179,8481,39487,31018,15418,13364,23317,48190,27547,23778,45248,7584,20918,29398,16909,21109,37209,1110,35444,27410,39141,13702,10734,2798,25749,34412,12517,2346,25604,16920,35112,705,36556,38699,31106,38349,22171,39465,38214,
2,466,466,705,466,1110,705,1110,1570,640,7969,4774,6598,1646,1710,2041,757,441,2427,6123,3172,262,13741,7282,3465,9716,561,5697,1362,11720,1622,1826,3478,2327,2459,2398,1600,906,4970,1268,6277,3038,1822,1101,3090,4705,360,4785,24755,14933,3189,13215,3767,3263,2149,3949,5709,3318,2421,1017,2515,1235,2080,1528,611,9526,1367,3574,1683,3554,25011,1600,4044,15458,11974,33806,13851,607,1686,6097,3405,
3,262,262,360,360,262,441,441,360,561,1117,1585,4203,531,602,6173,2230,1303,529,6854,607,466,1319,466,1016,2777,3679,360,1163,1842,946,1786,2506,1842,466,607,1187,360,1424,912,1630,1600,1806,577,1106,705,3312,1838,466,2844,1165,531,262,1842,1711,699,1496,602,2844,1307,262,466,1622,1128,781,578,531,1110,1436,466,1110,262,1424,18028,6739,7128,245,5215,3460,24307,45378,
4,245,262,262,262,262,262,245,360,1741,466,561,262,160,262,360,262,558,262,6585,607,466,360,262,466,602,2994,262,466,360,262,360,262,3458,262,262,602,466,640,607,1853,262,605,262,1170,262,466,262,360,2610,262,262,262,466,262,466,262,1170,651,1249,1424,1881,466,262,691,262,360,160,160,1842,466,466,968,25220,9192,27700,466,38866,31716,160,38774,
5,160,160,160,160,160,262,245,262,262,262,160,13615,1842,262,160,160,360,5419,262,14771,13249,779,160,262,602,262,262,262,160,262,262,466,4423,160,262,466,466,160,160,262,262,9116,466,262,262,562,262,160,160,160,262,262,12584,262,20269,466,262,160,160,466,262,691,262,369,11019,1021,262,262,262,160,551,262,22144,36757,5159,8809,10758,30540,360,1776,
6,160,160,160,160,160,160,160,160,160,5119,262,262,160,262,160,160,262,2227,262,160,262,262,160,160,245,160,262,262,160,262,160,160,466,262,160,160,3060,262,160,262,262,262,160,262,160,160,262,262,262,160,262,160,5119,262,10687,160,262,160,262,262,160,10687,262,160,160,160,262,160,160,160,160,160,262,19944,42736,15840,20081,31609,35509,29278,
7,160,160,160,160,160,160,160,160,160,160,160,160,2062,5119,262,160,160,160,160,262,160,160,18281,160,160,262,262,262,5119,5119,262,262,10059,160,262,160,10059,160,160,160,160,262,5119,160,160,5119,466,262,160,160,160,160,7271,160,262,160,160,160,160,262,262,160,160,160,160,160,160,262,262,262,160,160,6828,32903,14682,13386,58330,8626,10833,160,
8,160,160,160,160,160,160,160,160,160,160,2062,160,160,160,160,160,160,160,160,160,160,160,160,160,160,160,160,160,262,160,23199,160,262,160,14314,160,160,4178,262,160,160,262,160,262,160,160,160,160,160,160,160,160,160,160,160,160,160,160,160,160,262,160,160,160,160,160,10059,160,2062,160,160,31908,25909,32305,4493,3250,3248,28553,160,43241,
9,160,160,160,160,160,160,160,160,160,160,160,160,160,160,160,160,160,160,160,160,160,160,160,160,160,160,160,160,160,160,160,160,160,160,160,160,160,160,160,160,160,160,160,160,2027,160,160,160,160,160,160,160,160,160,160,160,160,160,160,160,160,160,160,160,160,160,160,160,160,160,160,160,9434,3138,38613,47863,26289,160,33152,160,
10,160,160,160,160,160,160,160,160,160,160,160,160,160,160,160,160,160,160,160,160,160,160,160,160,160,160,160,160,160,160,160,160,160,160,160,160,160,160,160,160,160,160,160,160,160,160,160,160,160,160,160,160,3138,160,160,160,160,160,160,160,160,160,160,160,160,160,160,160,160,160,160,160,32357,35220,35477,50428,10592,2004,33720,18668,
11,160,160,160,160,160,160,160,160,160,160,160,160,160,160,160,160,160,160,160,160,160,160,160,160,160,160,160,160,160,160,160,160,160,160,160,160,160,160,160,160,160,160,160,160,160,160,160,160,160,160,160,160,160,160,160,160,1226,160,160,160,1433,160,160,160,160,160,160,160,160,160,160,160,15412,24855,52730,16062,1957,160,160,30866,
12,160,160,160,160,160,160,160,160,160,160,160,160,160,160,160,160,160,160,4908,160,160,160,160,160,160,160,160,160,160,160,160,160,160,160,160,160,160,160,160,160,160,160,160,160,160,160,160,160,160,160,160,160,160,28922,160,160,160,160,160,160,160,160,160,160,160,160,160,160,160,160,160,160,35074,17736,42853,35079,26980,24007,30742,13918,
13,160,160,160,160,160,160,160,160,160,160,160,160,160,160,160,160,160,160,160,160,160,160,160,160,2104,160,160,160,160,160,160,160,160,160,160,16661,160,160,160,160,160,160,160,160,160,160,160,160,160,160,160,160,160,160,160,160,160,4908,160,160,160,160,160,160,160,160,160,160,160,160,160,160,22517,3514,30155,3311,160,160,41774,20702,
14,160,160,160,160,160,160,160,160,160,160,160,160,160,160,160,160,160,160,160,160,160,160,160,160,7891,160,160,160,160,160,6159,160,160,160,160,160,160,160,160,160,160,160,160,160,160,160,160,7069,160,160,160,160,160,160,160,160,160,160,160,160,160,160,160,160,160,160,160,160,160,160,160,160,11028,2120,34608,4412,21936,160,17283,23312,
15,160,160,160,160,160,160,160,160,160,160,160,160,160,160,160,160,160,160,160,160,160,160,160,160,160,160,160,160,160,160,160,160,31367,16169,160,160,160,160,160,160,160,160,160,12644,160,160,160,160,160,160,160,160,160,160,160,160,160,160,160,160,160,160,160,23091,160,160,160,160,160,160,160,160,160,35994,45212,34126,32439,4893,38512,47783,
16,160,160,160,160,160,160,160,160,160,160,160,160,160,160,160,160,160,160,160,160,160,160,160,1554,160,160,160,160,160,160,160,160,160,160,160,160,160,160,160,160,160,160,160,160,160,160,160,1554,160,160,160,160,160,160,160,160,160,160,160,160,160,160,160,160,160,160,160,160,160,160,160,17773,7678,5497,4177,36303,45902,15734,160,11200,
17,160,160,160,160,160,160,160,160,160,160,160,160,9466,160,160,160,160,160,160,160,160,2152,160,160,160,160,160,160,160,160,160,160,160,160,160,160,160,160,160,160,160,160,160,160,160,160,160,160,160,160,160,160,160,5637,160,160,160,160,160,160,160,160,160,160,160,160,160,160,46000,160,160,160,160,18061,16677,160,24961,18159,3367,160,
18,160,160,160,160,160,160,160,160,160,160,160,160,160,160,160,160,160,12347,160,160,160,160,160,160,160,160,160,160,160,160,160,160,160,160,160,160,160,160,160,160,160,160,160,160,160,160,160,160,160,160,160,160,160,160,160,160,160,160,160,160,160,160,160,160,160,160,160,160,160,160,160,160,31552,160,8093,36496,28105,4284,5176,28987,
19,160,160,160,160,160,160,160,160,160,160,160,160,160,160,160,160,160,160,160,160,160,160,160,160,160,160,160,160,160,160,160,160,160,160,160,160,160,160,160,160,160,160,160,160,160,160,160,160,160,160,160,160,160,160,160,160,8093,160,160,160,160,160,160,160,160,160,160,160,160,160,160,160,2578,160,160,26517,7908,50360,29122,160,
20,160,160,160,160,160,160,160,160,160,160,160,160,160,160,160,160,160,160,160,160,160,160,160,160,160,160,160,160,160,160,160,160,160,160,160,160,160,160,160,160,160,160,160,160,160,160,160,160,160,160,160,160,160,160,160,160,160,160,160,160,160,160,160,160,160,160,160,160,160,160,160,160,160,160,18096,160,8474,40253,45366,5750,
21,160,160,160,160,160,160,160,160,160,38468,160,160,160,160,160,160,160,160,160,160,160,160,160,160,160,160,160,160,160,160,160,160,160,160,160,160,160,160,160,160,160,160,160,160,160,160,160,160,160,160,160,160,160,160,160,160,160,160,160,160,160,160,160,160,160,160,160,160,160,160,160,160,160,160,51446,45370,34238,13409,20140,21587,
22,160,160,160,160,160,160,160,160,160,160,160,160,160,160,160,160,160,160,160,160,160,160,160,160,160,160,160,160,160,160,160,160,160,160,160,160,160,160,160,160,160,160,160,160,160,160,160,160,160,160,160,160,160,160,160,160,160,160,160,160,160,160,160,160,160,160,160,160,160,160,160,160,160,28991,4458,30740,14100,35427,4132,46794,
23,160,160,160,160,160,160,160,160,160,160,160,160,160,160,160,160,160,160,160,160,160,160,160,160,160,160,160,160,160,160,160,160,160,160,160,160,160,160,160,160,160,160,160,17784,160,160,160,160,160,160,160,160,160,160,160,160,160,160,160,160,160,160,160,160,160,160,160,160,160,160,160,160,160,160,38450,26939,13791,20054,55878,4337,
24,160,160,160,160,160,160,160,160,160,160,160,160,160,160,1208,160,160,160,160,160,160,160,160,160,160,160,160,160,160,160,160,160,160,160,160,160,160,160,160,160,160,160,160,160,160,306,160,160,160,27370,160,160,160,160,160,160,862,160,160,160,160,160,160,862,160,160,160,1208,160,160,160,160,160,160,21130,16521,11957,30675,13813,47517,
25,160,160,160,160,160,160,160,160,160,160,160,160,160,160,43916,160,160,160,160,160,160,160,160,160,160,160,160,160,160,160,160,160,160,160,160,160,160,160,160,160,160,160,160,160,160,160,160,160,160,160,160,160,160,160,160,160,160,160,9850,160,160,160,160,2568,160,160,160,160,160,160,160,160,27492,160,30845,13405,27334,38205,24535,19483,
26,160,160,160,160,160,160,160,160,160,160,160,160,160,160,160,160,160,160,160,160,160,160,160,160,160,160,160,160,160,160,160,160,160,160,160,160,160,4061,160,160,160,160,160,160,160,160,160,160,160,160,160,160,121,160,160,160,160,160,160,160,160,160,160,160,160,160,160,160,160,160,160,160,39325,46120,160,39611,14609,160,14011,4057,
27,121,160,160,160,160,160,160,160,160,160,160,160,160,160,160,160,160,160,160,160,160,160,160,160,160,160,160,160,160,160,160,160,160,2636,160,160,160,160,160,160,160,160,160,160,160,160,160,160,160,160,160,160,160,160,160,160,160,160,160,160,160,160,160,160,160,160,160,160,160,160,160,160,42829,160,121,5950,47128,26869,28074,30802,
28,121,121,160,160,160,160,160,160,160,160,160,160,160,2928,160,160,160,160,160,160,160,121,160,160,160,160,160,160,160,160,160,160,160,160,160,160,5950,7008,160,160,160,6096,160,160,160,160,160,160,160,160,30397,160,160,160,121,160,160,5376,160,160,160,15044,548,160,160,160,160,160,160,160,160,160,14025,37852,13382,9544,6765,160,4044,160,
29,121,121,121,121,160,160,160,160,160,160,160,160,160,160,160,160,160,160,160,121,160,160,160,160,160,160,2376,16445,160,160,160,160,160,160,2823,160,18473,121,160,160,160,160,160,160,160,160,160,160,160,160,160,121,160,160,160,160,160,121,160,160,160,160,160,160,160,487,121,160,160,160,160,160,6884,14405,34323,34541,32252,9367,121,8548,
30,121,121,121,121,121,121,121,121,8545,121,160,121,160,160,160,121,160,160,160,160,160,121,160,121,160,160,160,160,160,160,160,160,160,160,121,121,160,160,160,4595,160,160,160,121,160,160,121,160,160,160,160,160,121,160,160,121,160,160,121,160,160,160,160,160,160,160,160,121,121,160,160,160,160,39928,8060,5691,15836,160,18808,22046,
31,121,121,121,121,121,121,121,121,121,121,160,160,121,160,160,160,160,121,121,121,160,121,121,160,160,121,160,121,160,160,121,121,121,160,160,160,160,160,160,160,121,160,160,121,160,160,160,121,121,121,121,160,160,29196,160,121,121,121,160,121,160,121,121,121,121,121,121,160,121,121,121,121,1573,160,55403,26980,36164,37792,33833,1935,
32,121,121,121,121,121,121,121,121,121,121,121,160,20661,160,121,121,121,121,160,1935,160,121,121,121,121,3605,121,160,160,121,160,121,3530,121,121,121,121,160,121,121,160,121,121,121,121,121,121,121,160,121,121,160,121,121,160,160,121,121,121,121,121,121,121,121,121,121,121,121,121,121,160,121,121,18651,21180,779,9752,22882,2302,36181,
33,121,121,121,121,121,121,121,121,121,121,121,121,121,121,121,121,121,121,160,121,121,121,121,121,121,121,121,121,121,160,121,121,121,121,121,121,121,121,121,121,121,121,121,121,121,121,121,121,121,160,160,121,121,10391,121,121,121,121,121,3530,121,121,121,121,160,121,121,121,121,121,160,7304,50182,17883,121,12146,42144,12205,22355,42886,
34,121,121,121,121,121,121,121,121,121,121,121,121,121,121,121,121,121,121,121,121,121,121,121,121,121,121,121,121,121,121,121,121,121,121,121,121,121,121,121,121,121,121,121,121,121,121,121,121,121,121,121,121,121,121,121,121,121,121,121,121,121,121,121,121,121,121,121,121,121,121,121,121,25017,32320,41709,121,121,4261,22945,121,
35,121,121,121,121,121,121,121,121,121,121,121,121,121,3667,121,121,121,121,121,121,121,121,121,121,121,121,121,121,121,121,121,121,121,121,121,121,121,121,121,121,121,121,121,121,121,121,121,121,121,121,8762,121,121,121,121,121,121,121,121,121,121,121,121,121,121,121,121,121,121,121,121,121,51774,13589,49688,20311,121,9571,121,121,
36,121,121,121,121,121,121,121,121,121,121,121,121,121,121,121,121,121,121,121,121,121,121,121,121,121,121,121,121,121,121,121,121,121,121,121,121,577,121,121,577,121,121,121,121,121,121,121,121,121,121,121,121,121,121,121,121,121,121,121,121,121,121,121,121,121,121,121,121,121,121,121,121,46260,121,32734,121,121,54975,24688,46275,
37,121,121,121,121,121,121,121,121,121,121,121,121,121,121,121,121,121,121,121,121,121,121,121,121,121,121,121,121,121,121,121,121,121,121,121,121,121,121,121,121,121,121,121,121,121,121,9657,121,9657,121,121,121,121,121,121,121,121,121,121,121,121,121,121,121,27216,121,121,121,121,121,121,121,19240,11951,41975,121,121,121,5260,38667,
38,121,121,121,121,121,121,121,121,121,121,121,121,121,121,121,121,121,121,121,121,121,121,121,121,121,121,121,121,121,121,121,121,121,121,121,121,121,121,121,121,121,121,121,121,121,121,121,121,121,121,121,121,121,121,121,121,121,121,121,121,121,121,121,121,121,121,121,121,121,121,121,121,11598,18680,11328,121,43541,121,42680,121,
39,121,121,121,121,121,121,121,121,121,121,121,121,121,18680,121,121,121,121,121,121,121,121,121,121,121,121,121,121,121,121,121,121,121,121,121,121,121,121,121,29627,121,121,121,121,121,121,121,121,121,121,121,121,121,121,121,121,121,121,121,121,121,121,121,121,121,121,121,121,121,121,121,121,50062,8156,42362,45822,38750,4727,4066,52663,
40,121,121,121,121,121,121,121,121,121,121,121,17906,121,19113,121,4951,121,121,121,1815,17906,121,121,121,121,121,121,121,4951,121,121,121,121,121,121,121,121,121,121,121,121,121,121,121,121,121,121,3910,121,121,121,121,21707,121,121,9877,121,17906,121,3910,121,121,121,121,3607,121,121,4951,121,121,121,121,38689,57855,29969,10171,35700,37755,38354,1064,
41,121,121,121,121,121,121,121,121,121,121,121,121,19140,121,121,121,121,121,121,121,19140,121,121,121,19140,28606,121,121,121,121,121,121,121,121,121,121,121,121,121,121,121,121,121,121,121,121,121,121,13079,121,4134,121,121,121,121,121,121,13079,10359,121,121,121,121,121,3571,121,121,121,121,121,121,121,49843,52411,58141,6912,121,53211,45159,121,
42,121,121,121,121,121,121,121,121,121,121,121,121,121,121,121,121,121,121,121,121,121,121,121,121,121,121,121,121,121,121,121,121,121,121,121,121,121,121,121,121,121,121,121,121,121,121,121,121,121,121,121,121,121,121,121,121,121,121,121,121,121,121,121,121,121,121,121,121,121,121,121,121,15286,121,121,32231,41623,35807,5144,47419,
43,121,121,121,121,121,121,121,121,121,121,121,121,121,121,121,121,121,121,121,121,121,121,121,121,121,121,121,121,121,121,121,121,121,121,121,121,121,121,121,121,121,121,121,121,121,121,121,121,121,121,121,121,121,121,121,121,121,121,121,16144,121,121,121,121,121,121,121,121,121,121,121,121,121,121,24195,121,121,28718,27994,121,
44,121,121,121,121,121,121,121,121,121,121,121,121,121,121,121,121,121,121,121,121,121,121,121,121,121,121,121,121,121,121,121,121,121,121,121,121,121,121,121,121,121,121,121,121,121,121,121,121,121,121,121,121,121,121,121,121,121,121,121,121,121,121,121,121,121,121,121,121,121,121,121,121,25800,51360,121,31531,121,42268,48954,27095,
45,121,121,121,121,121,121,121,121,121,121,121,121,121,121,121,121,121,121,121,121,121,121,121,121,121,121,121,121,121,121,121,121,121,121,121,121,121,121,121,121,121,121,121,121,121,121,121,121,121,121,121,121,121,121,121,121,121,121,121,121,121,121,121,121,121,121,121,121,121,121,121,121,121,20322,12121,28456,32078,121,40198,23902,
46,121,121,121,121,121,121,121,121,121,121,121,121,121,121,121,121,121,121,121,121,121,121,121,121,121,121,121,121,121,121,121,121,121,121,121,121,121,121,121,121,22202,121,121,121,121,121,121,121,121,121,121,121,121,121,121,121,121,121,121,121,121,121,121,121,121,121,121,121,121,121,121,121,121,121,10163,121,49140,121,121,121,
47,121,121,121,121,121,121,121,121,121,121,121,121,121,121,121,121,121,121,121,121,121,121,43595,121,121,121,121,121,121,121,121,121,121,121,121,121,121,121,121,121,121,121,121,121,121,121,121,121,121,121,121,121,121,121,121,121,121,121,121,121,121,121,121,121,121,121,121,121,121,121,121,121,121,121,121,121,34577,121,15615,27091,
48,121,121,121,121,121,121,121,121,121,121,121,121,121,121,121,121,121,121,121,121,121,121,121,121,16407,121,121,121,121,121,121,121,121,121,121,121,121,121,121,121,121,121,121,121,121,121,121,121,121,121,121,121,24210,121,121,121,121,121,121,121,121,121,121,121,121,121,121,121,121,121,121,121,34101,121,10566,27845,121,36147,43769,18645,
49,121,121,121,121,121,121,121,121,121,121,121,121,121,121,121,121,121,121,121,121,121,121,121,121,121,31183,121,121,121,121,121,121,121,121,121,121,121,121,121,121,121,121,36036,15210,121,121,121,121,121,121,121,121,121,121,121,121,121,121,121,121,121,121,121,121,121,121,121,121,121,121,121,121,121,121,121,20454,37315,34767,23036,36869,
50,121,121,121,121,121,121,121,121,121,121,121,121,121,121,121,121,121,121,121,121,121,121,121,121,121,121,121,19382,121,121,121,121,121,121,121,121,4139,121,121,121,121,121,121,121,121,121,121,121,121,121,121,121,121,121,121,121,121,121,121,121,121,121,121,121,121,121,121,4139,121,11545,121,121,121,18468,13599,44727,121,59269,26638,15548,
51,121,121,121,121,121,121,121,121,121,121,121,121,121,121,121,121,8401,121,121,121,121,121,121,121,121,121,121,121,121,121,121,121,121,121,121,121,121,121,121,121,121,121,121,121,19382,121,121,121,121,121,4139,121,121,121,121,121,121,121,121,121,121,121,121,121,121,121,121,121,121,121,121,121,21418,35101,4700,32855,31235,121,121,23644,
52,121,121,121,121,121,121,121,121,121,1956,121,121,121,121,121,121,121,121,121,121,121,121,121,121,121,121,121,121,121,7532,121,121,121,121,121,121,121,121,121,121,121,121,7532,121,121,121,121,121,121,121,7532,121,121,121,121,121,121,121,121,121,121,928,121,121,121,121,18024,121,121,7532,121,2858,54002,48037,121,3528,34053,121,2657,54642,
53,121,121,121,121,121,121,121,121,121,121,121,121,121,121,121,121,121,121,121,121,121,121,121,121,121,121,4021,121,121,121,121,121,121,121,121,121,121,121,121,121,121,121,121,121,121,121,121,121,121,121,2479,7532,121,121,121,121,121,121,121,121,121,121,121,121,121,121,121,121,121,121,121,121,11677,27665,14008,121,30061,10034,121,48228,
54,121,121,121,121,121,121,121,121,121,121,121,121,7532,121,121,121,121,121,121,121,121,121,121,121,121,121,121,121,121,121,121,121,121,121,121,121,121,121,121,121,121,121,121,121,121,15855,121,121,121,121,121,121,121,121,121,121,121,121,121,121,121,121,121,121,39659,121,121,121,121,121,3057,121,33436,46362,17168,37109,43534,42504,121,1010,
55,121,121,121,121,121,121,121,121,121,121,121,121,121,121,121,121,121,121,121,121,121,121,121,121,121,121,4089,121,121,121,121,121,121,121,121,121,121,121,121,121,121,121,121,121,121,121,121,121,121,121,121,121,121,4089,121,121,121,121,21652,121,121,121,121,121,13600,121,121,121,15855,121,121,121,45021,121,4084,12367,121,17280,16995,44051,
56,121,121,121,121,121,121,121,121,121,121,121,121,121,121,121,121,121,121,121,121,121,121,121,121,121,121,121,121,121,121,121,121,121,121,121,121,121,17280,121,121,121,121,121,121,121,121,121,121,121,121,121,121,121,121,121,121,14053,121,121,121,121,121,121,121,121,121,121,121,121,121,121,121,6805,39624,48102,121,29504,121,121,121,
57,121,121,121,121,121,121,121,121,121,121,121,121,121,121,121,121,121,121,121,121,121,121,121,121,121,121,121,121,121,121,121,121,121,121,121,42977,121,121,121,121,121,121,121,121,121,121,121,121,121,121,121,121,121,121,121,121,121,121,121,121,121,121,121,121,121,121,121,121,121,121,121,10677,14342,42163,41065,24384,20155,121,39727,121,
58,121,121,121,121,121,121,121,121,121,121,121,121,121,121,121,121,121,121,121,121,121,121,121,121,121,121,16447,121,121,121,121,121,121,121,121,121,121,121,121,121,121,121,121,121,121,121,121,121,121,121,121,121,121,121,121,121,121,121,121,121,121,121,121,121,121,121,121,121,121,121,121,121,2421,121,2651,33607,5401,50895,121,121,
59,121,121,121,121,121,121,121,121,121,121,121,121,121,121,121,121,121,121,121,121,121,121,121,121,121,121,121,121,121,121,121,121,121,121,121,121,121,121,121,121,121,121,121,121,121,121,121,121,121,121,121,121,121,121,121,121,121,121,121,121,121,121,121,121,121,121,121,121,121,121,121,121,46037,43772,42079,47772,121,25318,42303,43238,
60,121,121,121,121,121,121,121,121,121,121,121,121,121,8104,121,121,121,121,19076,121,121,121,121,121,121,121,121,121,121,121,121,121,121,121,121,121,121,121,121,121,19076,121,121,121,121,121,121,121,121,121,121,121,121,121,121,121,121,121,121,121,121,121,121,121,121,121,121,121,121,121,121,121,12948,26234,121,1260,121,121,121,39325,
61,121,121,121,121,121,121,121,121,1260,121,121,121,121,121,121,121,121,121,121,121,121,121,121,121,121,121,121,121,121,121,121,121,121,121,121,121,121,121,21424,121,121,121,121,121,121,121,121,121,121,121,121,121,121,121,121,121,121,121,121,121,23483,121,121,121,121,121,121,121,121,121,1260,121,46950,121,121,47883,13018,53816,13815,23370,
62,121,121,121,121,121,121,121,121,121,121,121,121,10432,121,121,121,121,121,121,121,121,121,121,121,121,121,121,121,121,121,121,121,121,121,121,121,121,121,121,121,121,121,121,121,121,121,121,121,121,121,121,121,27648,121,121,121,121,121,121,121,121,121,288,121,121,121,121,121,121,121,121,121,33587,19170,121,31026,121,121,16285,121,
63,121,121,121,121,121,121,121,121,121,121,121,121,121,121,121,121,121,121,121,19910,121,121,121,121,121,121,121,121,121,121,121,121,121,121,121,121,121,121,121,121,121,121,121,121,121,121,121,121,121,121,121,121,121,121,121,121,121,121,121,121,121,121,121,121,121,121,121,121,121,121,121,121,56799,4660,43612,42646,26934,121,22411,121,
64,121,121,121,121,121,121,121,121,121,121,121,121,121,121,121,121,35097,121,121,121,121,121,121,121,121,121,121,121,121,121,121,121,121,121,121,121,121,121,121,121,121,121,121,121,121,121,121,121,121,121,121,121,121,121,121,121,121,121,121,121,121,121,121,121,121,121,121,121,121,121,121,121,8432,48529,121,20086,54332,121,28525,45467,
65,121,121,121,121,121,121,121,121,121,121,121,121,121,121,121,121,121,121,121,121,121,121,121,39554,121,121,121,121,121,121,121,121,121,121,121,121,121,121,121,121,121,121,121,121,121,121,121,121,121,121,121,121,121,121,121,121,121,121,121,121,121,121,121,121,121,121,121,121,121,121,121,121,121,10881,121,121,36840,52021,14667,121,
66,121,121,121,121,121,121,121,121,121,121,121,121,121,121,121,121,121,121,6208,121,121,32664,121,121,121,121,121,121,121,121,121,121,121,121,121,121,121,121,121,121,121,121,121,121,121,121,121,121,121,121,121,121,121,121,121,121,121,121,16585,121,121,121,121,121,121,121,121,121,121,121,121,121,11833,28011,7565,19261,27408,10317,121,21394,
67,121,121,121,121,121,121,121,121,121,121,121,121,121,121,121,121,121,121,121,121,121,121,121,121,121,121,121,121,121,121,121,121,121,121,121,121,121,121,121,121,121,121,121,121,121,121,121,121,121,121,121,121,121,121,121,121,121,121,121,121,121,121,121,121,121,121,121,121,121,36072,121,121,42051,121,56081,121,121,121,13647,53832,
68,121,121,121,121,121,121,121,121,121,121,121,121,121,121,121,121,121,121,121,121,121,121,121,121,121,121,121,121,121,121,121,121,121,121,121,121,121,121,121,121,121,121,121,121,121,121,121,121,121,121,121,121,121,121,121,121,121,121,121,121,121,121,121,121,121,121,121,121,121,121,121,121,25886,56933,121,121,24933,16883,121,121,
69,121,121,121,121,121,121,121,121,121,121,121,121,6883,121,121,121,121,121,121,121,17696,121,121,121,121,121,121,121,121,121,121,121,121,121,121,121,121,121,121,121,121,121,121,121,121,121,121,121,121,121,121,121,121,121,121,121,121,121,121,121,121,121,7336,121,121,121,121,121,121,121,121,121,40957,38571,19164,121,121,42342,35297,7787,
70,121,121,121,121,121,121,121,121,121,121,121,121,121,121,2602,121,121,121,121,121,121,17276,121,121,2785,121,121,121,121,3888,121,121,121,121,121,121,121,121,121,121,121,121,121,121,121,121,121,121,121,121,121,121,121,121,121,121,121,121,121,121,121,121,121,121,121,121,121,121,121,121,121,121,39720,27311,121,121,24533,27817,121,13794,
71,121,121,121,121,121,121,121,121,121,121,121,121,121,121,121,121,121,121,121,121,121,121,121,121,121,121,121,121,121,121,3888,121,121,121,121,121,121,121,121,121,121,121,121,121,121,121,121,121,121,121,121,121,121,121,121,121,121,121,121,121,121,121,121,25661,121,121,121,121,121,121,121,121,57503,121,13520,121,35663,39331,18525,44059,
72,121,121,121,121,121,121,121,121,121,121,121,121,121,121,121,121,121,121,121,121,121,121,121,121,121,121,121,121,121,121,121,121,121,121,121,121,46165,121,121,121,121,121,121,121,121,121,121,121,121,121,121,121,121,121,121,121,121,121,121,121,121,121,121,121,121,121,121,121,121,121,121,121,121,11573,38323,47039,121,36608,34833,15229,
73,121,121,121,121,121,121,121,121,121,121,121,121,121,121,121,121,121,121,121,121,121,121,121,121,121,121,121,121,121,121,11573,121,121,121,121,121,121,121,121,121,121,121,121,121,121,121,121,121,121,121,121,121,121,121,121,121,121,121,121,121,121,121,121,121,121,121,121,121,121,121,121,121,43020,29151,36577,121,20781,32048,16744,121,
74,121,121,121,121,121,121,121,121,121,121,121,121,9052,121,121,121,121,121,121,121,121,121,121,121,121,12969,121,121,121,121,32048,121,121,121,121,121,121,121,121,121,121,121,121,121,121,121,12969,121,121,121,121,121,121,121,121,121,121,121,121,121,121,121,121,121,121,121,121,121,121,121,121,121,13613,44714,37118,20315,8089,121,121,30635,
75,121,121,121,121,121,121,121,121,121,121,121,121,121,121,121,121,121,121,121,121,121,121,121,121,121,121,121,121,121,121,121,19587,121,121,121,121,121,121,121,121,121,121,121,121,121,121,121,121,121,121,121,121,121,121,121,121,121,121,121,121,121,121,121,121,121,12906,121,121,121,121,121,121,24113,43428,20133,121,6941,37328,41465,53513,
76,121,121,121,121,121,121,121,121,121,121,121,121,121,121,121,121,121,121,121,121,121,121,121,121,121,121,121,121,121,121,121,121,121,121,44574,121,121,121,121,121,121,121,121,121,15429,121,121,121,121,121,121,121,10449,121,121,121,121,121,12901,121,121,121,121,121,12901,121,121,121,121,121,121,121,49632,2358,121,30940,31861,50360,23696,18212,
77,121,121,121,121,121,121,121,121,121,121,121,121,121,121,121,121,121,121,121,121,121,121,121,121,121,121,121,121,121,121,121,14111,121,121,121,121,121,121,121,121,121,121,121,121,121,121,121,121,121,121,121,121,121,121,121,121,121,121,121,121,121,121,121,121,121,121,121,121,121,121,121,121,5772,45573,33811,43052,9900,46878,13381,35865,
78,121,121,121,121,121,121,121,121,121,121,121,121,121,121,121,121,121,121,121,121,121,121,121,121,121,121,121,121,121,121,121,121,121,121,121,121,121,121,121,121,121,121,121,121,121,121,121,121,121,121,121,121,121,121,121,121,121,121,121,121,121,121,121,121,121,121,121,121,121,121,121,121,46576,24805,50785,39922,24948,26287,36070,121,
79,121,121,121,121,121,121,121,121,17445,121,121,121,121,121,121,121,121,121,121,121,10641,121,121,121,121,121,121,121,121,121,121,121,121,121,121,17445,121,121,121,121,121,121,121,121,121,121,121,121,121,121,121,121,121,121,121,121,121,121,121,121,121,121,121,121,121,121,121,121,121,121,121,121,121,43171,46758,41101,121,25424,28052,121,
80,121,121,121,121,121,121,121,121,121,121,121,121,121,121,121,121,121,7458,121,121,121,121,121,121,121,121,121,121,121,121,121,121,121,121,121,121,29269,121,121,121,121,121,121,121,7458,121,121,121,121,121,121,121,121,121,121,121,121,121,121,121,121,121,121,121,121,121,121,121,121,121,121,121,121,30875,121,47560,24959,35102,121,12168,
81,121,121,121,121,121,121,121,121,121,121,121,121,121,121,121,121,121,121,121,121,121,121,121,121,121,121,121,121,121,121,121,121,121,121,121,121,121,121,121,121,121,121,121,121,121,121,121,121,121,121,121,121,121,121,121,121,121,121,121,121,121,121,121,121,121,121,121,10028,121,121,121,121,121,57601,121,14292,13651,26869,121,18309,
82,121,121,121,121,121,121,121,121,121,121,121,121,121,121,121,121,121,9608,9608,25865,121,121,121,121,121,121,121,121,121,121,121,121,121,121,121,121,121,121,121,121,121,121,121,121,121,121,121,121,121,121,121,121,121,121,121,121,121,121,121,121,121,121,121,121,121,121,121,121,121,121,121,121,12208,121,15419,12967,17752,17038,22346,121,
83,121,121,121,121,121,121,121,121,121,121,121,121,121,121,121,121,121,121,17038,121,121,121,121,121,121,121,121,121,121,121,121,121,121,121,121,121,121,121,121,121,121,121,121,121,121,121,121,121,121,121,121,121,121,121,121,121,121,121,121,121,121,121,121,121,121,121,121,121,121,121,121,121,31015,2201,35436,121,22774,121,39208,46997,
84,121,121,121,121,121,121,121,121,121,121,121,121,121,121,121,121,121,121,121,121,121,121,121,3433,121,121,121,121,121,121,121,121,121,121,121,121,121,121,121,121,121,121,121,121,121,121,121,121,121,121,121,121,121,121,121,121,121,121,121,121,121,121,121,121,121,121,121,121,121,121,15663,121,121,121,20684,54042,34946,49445,121,121,
85,121,121,121,121,121,121,121,121,121,121,121,121,121,121,121,121,121,121,121,121,121,121,121,121,121,13940,121,121,121,121,121,121,121,121,121,121,121,121,121,121,121,121,121,121,121,121,121,121,121,121,121,121,121,121,121,121,121,121,121,121,121,121,121,121,121,121,121,121,121,121,121,121,7914,121,121,34070,121,121,31706,26410,
86,121,121,121,121,121,121,121,121,121,121,121,121,121,121,121,121,121,121,121,121,121,121,121,121,121,121,121,121,121,121,121,121,121,121,121,121,121,121,121,121,121,121,121,121,121,121,121,121,121,121,121,121,121,121,121,121,121,121,121,121,121,121,121,121,121,121,121,121,121,121,121,121,46745,121,121,24735,12054,20997,42883,32131,
87,121,121,121,121,121,121,121,121,121,121,121,121,121,121,121,121,121,121,121,121,121,121,121,121,17611,4621,121,121,121,121,121,121,121,121,121,121,121,121,121,121,121,121,121,121,121,20394,121,121,121,121,121,121,121,121,121,121,121,121,121,121,17611,121,121,17611,121,121,121,121,121,121,121,121,121,121,14862,121,49184,48781,23823,2192,
88,121,121,121,121,121,121,121,121,121,121,121,121,121,121,121,121,121,121,121,121,121,121,121,121,121,121,121,121,121,121,121,121,121,121,121,34780,121,121,121,121,121,121,121,121,121,121,121,121,121,121,121,121,121,121,121,121,121,121,121,121,121,121,121,121,121,121,121,121,121,121,121,121,45624,121,121,20592,31636,121,46240,17057,
89,121,121,121,121,121,121,121,121,121,121,121,121,121,121,121,121,121,121,121,121,121,121,121,121,121,121,121,121,121,121,121,121,121,121,121,121,121,121,121,121,121,121,121,121,121,121,121,121,121,121,121,121,121,121,121,121,121,121,121,121,121,121,121,121,121,121,121,121,121,121,121,121,121,121,32332,38264,47111,121,51685,41657,
90,121,121,121,121,121,121,121,121,121,121,121,121,121,2556,121,121,121,121,121,121,121,121,121,121,121,121,121,121,121,121,121,121,121,121,121,121,121,121,121,121,121,121,121,121,121,121,121,121,121,121,121,121,121,121,20288,121,121,121,121,121,121,121,121,121,121,121,121,121,121,121,121,121,52333,5425,52917,12761,121,8325,34997,27630,
91,121,121,121,121,121,121,121,121,121,121,121,121,121,121,121,121,121,121,121,121,121,121,121,121,121,121,121,13915,121,121,121,121,121,121,121,121,121,22332,121,121,121,121,121,121,121,121,121,121,121,121,121,9485,121,121,121,121,121,121,121,121,121,121,121,121,121,121,121,121,121,121,121,121,43477,23360,47707,121,19892,37602,121,27927,
92,121,121,121,121,121,121,121,121,121,121,121,121,28326,121,121,121,121,121,121,121,121,121,121,121,121,121,121,121,121,121,121,121,121,121,121,121,121,121,121,121,121,121,121,121,121,121,121,121,121,121,121,8362,121,121,121,121,121,121,121,121,121,121,121,121,121,121,121,121,121,121,121,121,54934,121,121,121,9371,121,38185,121,
93,121,121,121,121,121,121,121,121,121,121,121,121,121,121,121,121,121,121,121,121,121,121,121,121,121,121,121,121,121,121,121,121,121,121,121,121,121,121,121,121,121,121,121,121,121,121,121,121,121,121,121,121,121,121,121,121,121,121,121,121,121,121,121,121,121,121,121,121,121,121,121,121,33722,121,121,121,1255,121,7136,121,
94,121,121,121,121,121,121,121,121,121,121,121,121,121,121,121,121,121,121,121,121,121,121,121,121,121,121,121,121,121,121,121,121,121,121,121,121,121,121,121,121,121,121,121,121,121,121,121,121,121,121,121,121,121,121,121,121,121,121,121,121,121,121,121,121,121,121,121,121,121,121,121,121,121,52654,121,58756,38221,18131,121,42894,
95,121,121,121,121,121,121,121,121,121,121,121,121,121,121,121,121,121,121,121,121,121,121,121,121,121,121,121,121,121,121,121,121,121,121,121,121,121,121,121,121,121,121,121,121,121,121,121,121,121,121,121,121,121,121,121,121,121,121,121,121,121,121,121,121,121,121,121,121,121,121,121,121,41434,21305,121,38999,2129,30469,121,23501,
96,121,121,121,121,121,121,121,121,121,121,121,121,121,121,121,121,121,121,121,121,121,121,121,121,121,121,121,121,121,121,121,121,121,121,121,121,121,121,121,121,937,121,121,121,121,121,121,121,121,121,121,937,121,121,121,121,121,121,121,121,121,121,121,121,121,121,121,121,121,121,121,121,45669,43927,11447,19811,50043,4281,47091,121,
97,121,121,121,121,121,121,121,121,121,121,121,7151,121,121,121,121,121,121,121,121,121,121,121,121,121,121,121,121,121,121,121,121,121,121,121,121,121,121,121,121,121,121,121,121,121,11025,121,121,121,121,121,121,121,121,121,121,6817,121,121,121,121,121,121,121,121,121,121,121,121,121,121,121,13268,121,32640,25000,121,14095,121,29062,
98,121,121,121,121,121,121,121,121,35437,121,121,121,121,121,121,121,121,121,121,121,121,121,121,121,121,121,121,121,121,121,121,121,121,121,121,121,121,121,121,121,121,121,121,121,121,121,121,121,121,121,121,121,121,121,121,121,121,36208,121,121,121,121,121,121,121,121,121,121,121,121,121,121,17619,121,121,48879,121,43086,46537,121,
99,121,121,121,121,121,121,121,121,121,121,121,121,121,121,121,121,121,121,121,121,121,121,121,121,2073,121,121,121,121,121,121,121,121,121,121,121,121,121,121,121,121,121,3282,121,121,121,121,121,121,121,121,121,121,121,121,121,121,121,121,121,121,121,121,121,121,121,121,121,121,121,121,121,32420,4652,121,121,45560,16028,46597,42441,
100,121,121,121,121,121,121,121,121,121,121,121,121,121,121,121,121,121,121,121,121,121,121,121,121,121,121,121,121,121,121,121,121,121,121,121,121,121,121,121,121,121,121,121,121,121,121,121,121,121,121,121,121,121,121,121,121,121,121,121,121,121,121,121,121,121,121,121,121,121,121,121,121,121,20354,121,121,121,121,29651,16339,
